p cnf 1167
-16 -366
-17 -369
-18 -372
-19 -375
-20 -378
-21 -381
-22 -384
-23 -387
-24 -390
-25 -393
-26 -396
-27 -399
-28 -402
-29 -405
-30 -408
-31 409
-32 410
-33 411
-34 412
-35 413
-36 414
-37 415
-38 416
-39 417
-40 418
-41 419
-42 -17
-42 -18
17 18 42
-43 -19
-43 -20
19 20 43
-44 -21
-44 -22
21 22 44
-45 -23
-45 -24
23 24 45
-46 -25
-46 -26
25 26 46
-47 -27
-47 -28
27 28 47
-48 -29
-48 -30
29 30 48
-49 -31
-49 -32
31 32 49
-50 -33
-50 -34
33 34 50
-51 -35
-51 -36
35 36 51
-52 -37
-52 -38
37 38 52
-53 -39
-53 -40
39 40 53
-54 42
-54 43
-42 -43 54
-55 44
-55 45
-44 -45 55
-56 46
-56 47
-46 -47 56
-57 48
-57 49
-48 -49 57
-58 50
-58 51
-50 -51 58
-59 52
-59 53
-52 -53 59
-60 54
-60 55
-54 -55 60
-61 56
-61 57
-56 -57 61
-62 58
-62 59
-58 -59 62
-63 60
-63 61
-60 -61 63
-64 -41
-64 62
41 -62 64
-65 63
-65 64
-63 -64 65
-66 -16
-66 17
16 -17 66
-67 16
-67 -17
-16 17 67
-68 -66
-68 -67
66 67 68
-69 16
-69 17
-16 -17 69
-70 -16
-70 -68
16 68 70
-71 16
-71 68
-16 -68 71
-72 -70
-72 -71
70 71 72
-73 16
-73 -68
-16 68 73
-74 -69
-74 -73
69 73 74
-75 -17
-75 18
17 -18 75
-76 17
-76 -18
-17 18 76
-77 -75
-77 -76
75 76 77
-78 17
-78 18
-17 -18 78
-79 74
-79 -77
-74 77 79
-80 -74
-80 77
74 -77 80
-81 -79
-81 -80
79 80 81
-82 -74
-82 -77
74 77 82
-83 -78
-83 -82
78 82 83
-84 -18
-84 19
18 -19 84
-85 18
-85 -19
-18 19 85
-86 -84
-86 -85
84 85 86
-87 18
-87 19
-18 -19 87
-88 83
-88 -86
-83 86 88
-89 -83
-89 86
83 -86 89
-90 -88
-90 -89
88 89 90
-91 -83
-91 -86
83 86 91
-92 -87
-92 -91
87 91 92
-93 -19
-93 20
19 -20 93
-94 19
-94 -20
-19 20 94
-95 -93
-95 -94
93 94 95
-96 19
-96 20
-19 -20 96
-97 92
-97 -95
-92 95 97
-98 -92
-98 95
92 -95 98
-99 -97
-99 -98
97 98 99
-100 -92
-100 -95
92 95 100
-101 -96
-101 -100
96 100 101
-102 -20
-102 21
20 -21 102
-103 20
-103 -21
-20 21 103
-104 -102
-104 -103
102 103 104
-105 20
-105 21
-20 -21 105
-106 101
-106 -104
-101 104 106
-107 -101
-107 104
101 -104 107
-108 -106
-108 -107
106 107 108
-109 -101
-109 -104
101 104 109
-110 -105
-110 -109
105 109 110
-111 -21
-111 22
21 -22 111
-112 21
-112 -22
-21 22 112
-113 -111
-113 -112
111 112 113
-114 21
-114 22
-21 -22 114
-115 110
-115 -113
-110 113 115
-116 -110
-116 113
110 -113 116
-117 -115
-117 -116
115 116 117
-118 -110
-118 -113
110 113 118
-119 -114
-119 -118
114 118 119
-120 -22
-120 23
22 -23 120
-121 22
-121 -23
-22 23 121
-122 -120
-122 -121
120 121 122
-123 22
-123 23
-22 -23 123
-124 119
-124 -122
-119 122 124
-125 -119
-125 122
119 -122 125
-126 -124
-126 -125
124 125 126
-127 -119
-127 -122
119 122 127
-128 -123
-128 -127
123 127 128
-129 -23
-129 24
23 -24 129
-130 23
-130 -24
-23 24 130
-131 -129
-131 -130
129 130 131
-132 23
-132 24
-23 -24 132
-133 128
-133 -131
-128 131 133
-134 -128
-134 131
128 -131 134
-135 -133
-135 -134
133 134 135
-136 -128
-136 -131
128 131 136
-137 -132
-137 -136
132 136 137
-138 -24
-138 25
24 -25 138
-139 24
-139 -25
-24 25 139
-140 -138
-140 -139
138 139 140
-141 24
-141 25
-24 -25 141
-142 137
-142 -140
-137 140 142
-143 -137
-143 140
137 -140 143
-144 -142
-144 -143
142 143 144
-145 -137
-145 -140
137 140 145
-146 -141
-146 -145
141 145 146
-147 -25
-147 26
25 -26 147
-148 25
-148 -26
-25 26 148
-149 -147
-149 -148
147 148 149
-150 25
-150 26
-25 -26 150
-151 146
-151 -149
-146 149 151
-152 -146
-152 149
146 -149 152
-153 -151
-153 -152
151 152 153
-154 -146
-154 -149
146 149 154
-155 -150
-155 -154
150 154 155
-156 -26
-156 27
26 -27 156
-157 26
-157 -27
-26 27 157
-158 -156
-158 -157
156 157 158
-159 26
-159 27
-26 -27 159
-160 155
-160 -158
-155 158 160
-161 -155
-161 158
155 -158 161
-162 -160
-162 -161
160 161 162
-163 -155
-163 -158
155 158 163
-164 -159
-164 -163
159 163 164
-165 -27
-165 28
27 -28 165
-166 27
-166 -28
-27 28 166
-167 -165
-167 -166
165 166 167
-168 27
-168 28
-27 -28 168
-169 164
-169 -167
-164 167 169
-170 -164
-170 167
164 -167 170
-171 -169
-171 -170
169 170 171
-172 -164
-172 -167
164 167 172
-173 -168
-173 -172
168 172 173
-174 -28
-174 29
28 -29 174
-175 28
-175 -29
-28 29 175
-176 -174
-176 -175
174 175 176
-177 28
-177 29
-28 -29 177
-178 173
-178 -176
-173 176 178
-179 -173
-179 176
173 -176 179
-180 -178
-180 -179
178 179 180
-181 -173
-181 -176
173 176 181
-182 -177
-182 -181
177 181 182
-183 -29
-183 30
29 -30 183
-184 29
-184 -30
-29 30 184
-185 -183
-185 -184
183 184 185
-186 29
-186 30
-29 -30 186
-187 182
-187 -185
-182 185 187
-188 -182
-188 185
182 -185 188
-189 -187
-189 -188
187 188 189
-190 -182
-190 -185
182 185 190
-191 -186
-191 -190
186 190 191
-192 -30
-192 31
30 -31 192
-193 30
-193 -31
-30 31 193
-194 -192
-194 -193
192 193 194
-195 30
-195 31
-30 -31 195
-196 191
-196 -194
-191 194 196
-197 -191
-197 194
191 -194 197
-198 -196
-198 -197
196 197 198
-199 -191
-199 -194
191 194 199
-200 -195
-200 -199
195 199 200
-201 -31
-201 32
31 -32 201
-202 31
-202 -32
-31 32 202
-203 -201
-203 -202
201 202 203
-204 31
-204 32
-31 -32 204
-205 200
-205 -203
-200 203 205
-206 -200
-206 203
200 -203 206
-207 -205
-207 -206
205 206 207
-208 -200
-208 -203
200 203 208
-209 -204
-209 -208
204 208 209
-210 -32
-210 33
32 -33 210
-211 32
-211 -33
-32 33 211
-212 -210
-212 -211
210 211 212
-213 32
-213 33
-32 -33 213
-214 209
-214 -212
-209 212 214
-215 -209
-215 212
209 -212 215
-216 -214
-216 -215
214 215 216
-217 -209
-217 -212
209 212 217
-218 -213
-218 -217
213 217 218
-219 -33
-219 34
33 -34 219
-220 33
-220 -34
-33 34 220
-221 -219
-221 -220
219 220 221
-222 33
-222 34
-33 -34 222
-223 218
-223 -221
-218 221 223
-224 -218
-224 221
218 -221 224
-225 -223
-225 -224
223 224 225
-226 -218
-226 -221
218 221 226
-227 -222
-227 -226
222 226 227
-228 -34
-228 35
34 -35 228
-229 34
-229 -35
-34 35 229
-230 -228
-230 -229
228 229 230
-231 34
-231 35
-34 -35 231
-232 227
-232 -230
-227 230 232
-233 -227
-233 230
227 -230 233
-234 -232
-234 -233
232 233 234
-235 -227
-235 -230
227 230 235
-236 -231
-236 -235
231 235 236
-237 -35
-237 36
35 -36 237
-238 35
-238 -36
-35 36 238
-239 -237
-239 -238
237 238 239
-240 35
-240 36
-35 -36 240
-241 236
-241 -239
-236 239 241
-242 -236
-242 239
236 -239 242
-243 -241
-243 -242
241 242 243
-244 -236
-244 -239
236 239 244
-245 -240
-245 -244
240 244 245
-246 -36
-246 37
36 -37 246
-247 36
-247 -37
-36 37 247
-248 -246
-248 -247
246 247 248
-249 36
-249 37
-36 -37 249
-250 245
-250 -248
-245 248 250
-251 -245
-251 248
245 -248 251
-252 -250
-252 -251
250 251 252
-253 -245
-253 -248
245 248 253
-254 -249
-254 -253
249 253 254
-255 -37
-255 38
37 -38 255
-256 37
-256 -38
-37 38 256
-257 -255
-257 -256
255 256 257
-258 37
-258 38
-37 -38 258
-259 254
-259 -257
-254 257 259
-260 -254
-260 257
254 -257 260
-261 -259
-261 -260
259 260 261
-262 -254
-262 -257
254 257 262
-263 -258
-263 -262
258 262 263
-264 -38
-264 39
38 -39 264
-265 38
-265 -39
-38 39 265
-266 -264
-266 -265
264 265 266
-267 38
-267 39
-38 -39 267
-268 263
-268 -266
-263 266 268
-269 -263
-269 266
263 -266 269
-270 -268
-270 -269
268 269 270
-271 -263
-271 -266
263 266 271
-272 -267
-272 -271
267 271 272
-273 -39
-273 40
39 -40 273
-274 39
-274 -40
-39 40 274
-275 -273
-275 -274
273 274 275
-276 39
-276 40
-39 -40 276
-277 272
-277 -275
-272 275 277
-278 -272
-278 275
272 -275 278
-279 -277
-279 -278
277 278 279
-280 -272
-280 -275
272 275 280
-281 -276
-281 -280
276 280 281
-282 -40
-282 41
40 -41 282
-283 40
-283 -41
-40 41 283
-284 -282
-284 -283
282 283 284
-285 40
-285 41
-40 -41 285
-286 281
-286 -284
-281 284 286
-287 -281
-287 284
281 -284 287
-288 -286
-288 -287
286 287 288
-289 -281
-289 -284
281 284 289
-290 -285
-290 -289
285 289 290
-291 16
-291 -72
-16 72 291
-292 -16
-292 18
16 -18 292
-293 -291
-293 -292
291 292 293
-294 16
-294 -81
-16 81 294
-295 -16
-295 19
16 -19 295
-296 -294
-296 -295
294 295 296
-297 16
-297 -90
-16 90 297
-298 -16
-298 20
16 -20 298
-299 -297
-299 -298
297 298 299
-300 16
-300 -99
-16 99 300
-301 -16
-301 21
16 -21 301
-302 -300
-302 -301
300 301 302
-303 16
-303 -108
-16 108 303
-304 -16
-304 22
16 -22 304
-305 -303
-305 -304
303 304 305
-306 16
-306 -117
-16 117 306
-307 -16
-307 23
16 -23 307
-308 -306
-308 -307
306 307 308
-309 16
-309 -126
-16 126 309
-310 -16
-310 24
16 -24 310
-311 -309
-311 -310
309 310 311
-312 16
-312 -135
-16 135 312
-313 -16
-313 25
16 -25 313
-314 -312
-314 -313
312 313 314
-315 16
-315 -144
-16 144 315
-316 -16
-316 26
16 -26 316
-317 -315
-317 -316
315 316 317
-318 16
-318 -153
-16 153 318
-319 -16
-319 27
16 -27 319
-320 -318
-320 -319
318 319 320
-321 16
-321 -162
-16 162 321
-322 -16
-322 28
16 -28 322
-323 -321
-323 -322
321 322 323
-324 16
-324 -171
-16 171 324
-325 -16
-325 29
16 -29 325
-326 -324
-326 -325
324 325 326
-327 16
-327 -180
-16 180 327
-328 -16
-328 30
16 -30 328
-329 -327
-329 -328
327 328 329
-330 16
-330 -189
-16 189 330
-331 -16
-331 31
16 -31 331
-332 -330
-332 -331
330 331 332
-333 16
-333 -198
-16 198 333
-334 -16
-334 32
16 -32 334
-335 -333
-335 -334
333 334 335
-336 16
-336 -207
-16 207 336
-337 -16
-337 33
16 -33 337
-338 -336
-338 -337
336 337 338
-339 16
-339 -216
-16 216 339
-340 -16
-340 34
16 -34 340
-341 -339
-341 -340
339 340 341
-342 16
-342 -225
-16 225 342
-343 -16
-343 35
16 -35 343
-344 -342
-344 -343
342 343 344
-345 16
-345 -234
-16 234 345
-346 -16
-346 36
16 -36 346
-347 -345
-347 -346
345 346 347
-348 16
-348 -243
-16 243 348
-349 -16
-349 37
16 -37 349
-350 -348
-350 -349
348 349 350
-351 16
-351 -252
-16 252 351
-352 -16
-352 38
16 -38 352
-353 -351
-353 -352
351 352 353
-354 16
-354 -261
-16 261 354
-355 -16
-355 39
16 -39 355
-356 -354
-356 -355
354 355 356
-357 16
-357 -270
-16 270 357
-358 -16
-358 40
16 -40 358
-359 -357
-359 -358
357 358 359
-360 16
-360 -279
-16 279 360
-361 -16
-361 41
16 -41 361
-362 -360
-362 -361
360 361 362
-363 16
-363 -288
-16 288 363
-364 1
-364 65
-1 -65 364
-365 -65
-365 66
65 -66 365
-366 -364
-366 -365
364 365 366
-367 2
-367 65
-2 -65 367
-368 -65
-368 -293
65 293 368
-369 -367
-369 -368
367 368 369
-370 3
-370 65
-3 -65 370
-371 -65
-371 -296
65 296 371
-372 -370
-372 -371
370 371 372
-373 4
-373 65
-4 -65 373
-374 -65
-374 -299
65 299 374
-375 -373
-375 -374
373 374 375
-376 5
-376 65
-5 -65 376
-377 -65
-377 -302
65 302 377
-378 -376
-378 -377
376 377 378
-379 6
-379 65
-6 -65 379
-380 -65
-380 -305
65 305 380
-381 -379
-381 -380
379 380 381
-382 7
-382 65
-7 -65 382
-383 -65
-383 -308
65 308 383
-384 -382
-384 -383
382 383 384
-385 8
-385 65
-8 -65 385
-386 -65
-386 -311
65 311 386
-387 -385
-387 -386
385 386 387
-388 9
-388 65
-9 -65 388
-389 -65
-389 -314
65 314 389
-390 -388
-390 -389
388 389 390
-391 10
-391 65
-10 -65 391
-392 -65
-392 -317
65 317 392
-393 -391
-393 -392
391 392 393
-394 11
-394 65
-11 -65 394
-395 -65
-395 -320
65 320 395
-396 -394
-396 -395
394 395 396
-397 12
-397 65
-12 -65 397
-398 -65
-398 -323
65 323 398
-399 -397
-399 -398
397 398 399
-400 13
-400 65
-13 -65 400
-401 -65
-401 -326
65 326 401
-402 -400
-402 -401
400 401 402
-403 14
-403 65
-14 -65 403
-404 -65
-404 -329
65 329 404
-405 -403
-405 -404
403 404 405
-406 15
-406 65
-15 -65 406
-407 -65
-407 -332
65 332 407
-408 -406
-408 -407
406 407 408
-409 -65
-409 -335
65 335 409
-410 -65
-410 -338
65 338 410
-411 -65
-411 -341
65 341 411
-412 -65
-412 -344
65 344 412
-413 -65
-413 -347
65 347 413
-414 -65
-414 -350
65 350 414
-415 -65
-415 -353
65 353 415
-416 -65
-416 -356
65 356 416
-417 -65
-417 -359
65 359 417
-418 -65
-418 -362
65 362 418
-419 -65
-419 363
65 -363 419
-420 -41
-420 290
41 -290 420
-421 16
-421 -420
-16 420 421
421
